c "random instance"
p edges 150 1130
e 1 2
e 1 12
e 1 20
e 1 49
e 1 82
e 1 87
e 1 94
e 1 101
e 1 103
e 1 113
e 1 123
e 1 126
e 1 138
e 1 143
e 2 7
e 2 8
e 2 22
e 2 33
e 2 72
e 2 82
e 2 102
e 2 133
e 2 134
e 2 146
e 2 150
e 3 6
e 3 17
e 3 27
e 3 70
e 3 71
e 3 75
e 3 80
e 3 90
e 3 91
e 3 93
e 3 97
e 3 103
e 3 117
e 3 128
e 3 136
e 3 139
e 3 145
e 3 147
e 4 19
e 4 24
e 4 30
e 4 55
e 4 61
e 4 66
e 4 67
e 4 71
e 4 73
e 4 98
e 4 101
e 4 104
e 4 105
e 4 113
e 4 116
e 4 124
e 4 140
e 5 26
e 5 31
e 5 32
e 5 41
e 5 60
e 5 70
e 5 81
e 5 86
e 5 92
e 5 124
e 5 129
e 5 146
e 6 10
e 6 18
e 6 25
e 6 43
e 6 48
e 6 64
e 6 72
e 6 77
e 6 89
e 6 102
e 6 103
e 6 116
e 6 140
e 7 27
e 7 63
e 7 76
e 7 84
e 7 92
e 7 94
e 7 100
e 7 102
e 7 104
e 7 106
e 7 125
e 7 128
e 7 133
e 7 138
e 8 12
e 8 17
e 8 39
e 8 47
e 8 48
e 8 51
e 8 71
e 8 75
e 8 92
e 8 93
e 8 96
e 8 105
e 8 119
e 8 120
e 8 122
e 8 129
e 8 134
e 8 145
e 8 148
e 8 150
e 9 11
e 9 14
e 9 24
e 9 62
e 9 64
e 9 75
e 9 77
e 9 81
e 9 82
e 9 92
e 9 101
e 9 107
e 9 109
e 9 116
e 9 143
e 10 11
e 10 24
e 10 27
e 10 42
e 10 47
e 10 52
e 10 65
e 10 77
e 10 94
e 10 101
e 10 108
e 10 134
e 10 149
e 11 19
e 11 31
e 11 33
e 11 44
e 11 47
e 11 52
e 11 53
e 11 59
e 11 68
e 11 72
e 11 86
e 11 106
e 11 108
e 11 109
e 11 115
e 11 121
e 11 124
e 11 129
e 12 13
e 12 26
e 12 34
e 12 47
e 12 48
e 12 59
e 12 65
e 12 105
e 12 117
e 12 130
e 12 139
e 13 22
e 13 23
e 13 37
e 13 72
e 13 82
e 13 93
e 13 96
e 13 112
e 13 126
e 14 19
e 14 21
e 14 34
e 14 36
e 14 40
e 14 56
e 14 77
e 14 84
e 14 86
e 14 92
e 14 110
e 14 121
e 14 127
e 14 144
e 15 44
e 15 48
e 15 53
e 15 82
e 15 112
e 15 125
e 15 130
e 15 141
e 16 21
e 16 22
e 16 29
e 16 38
e 16 41
e 16 51
e 16 54
e 16 67
e 16 76
e 16 127
e 16 129
e 17 24
e 17 25
e 17 31
e 17 35
e 17 53
e 17 54
e 17 58
e 17 78
e 17 80
e 17 100
e 17 121
e 17 126
e 17 129
e 17 139
e 17 144
e 17 149
e 18 26
e 18 32
e 18 44
e 18 74
e 18 90
e 18 93
e 18 100
e 18 134
e 18 137
e 18 139
e 18 148
e 19 70
e 19 83
e 19 84
e 19 91
e 19 92
e 19 96
e 19 109
e 19 117
e 19 124
e 19 137
e 20 36
e 20 77
e 20 91
e 20 94
e 20 120
e 20 141
e 20 146
e 21 33
e 21 46
e 21 64
e 21 68
e 21 70
e 21 89
e 21 105
e 21 112
e 21 120
e 21 132
e 21 137
e 21 145
e 22 27
e 22 34
e 22 36
e 22 43
e 22 46
e 22 49
e 22 51
e 22 52
e 22 54
e 22 64
e 22 91
e 22 106
e 22 112
e 22 125
e 22 132
e 23 34
e 23 44
e 23 60
e 23 68
e 23 73
e 23 76
e 23 88
e 23 93
e 23 102
e 24 26
e 24 32
e 24 38
e 24 56
e 24 63
e 24 92
e 24 94
e 24 96
e 24 109
e 24 113
e 24 122
e 24 140
e 24 146
e 25 27
e 25 31
e 25 32
e 25 51
e 25 64
e 25 65
e 25 66
e 25 73
e 25 81
e 25 93
e 25 122
e 25 132
e 25 135
e 25 147
e 26 40
e 26 53
e 26 89
e 26 114
e 26 118
e 26 134
e 27 33
e 27 55
e 27 57
e 27 58
e 27 73
e 27 75
e 27 82
e 27 89
e 27 103
e 27 105
e 27 115
e 27 116
e 27 120
e 28 50
e 28 59
e 28 110
e 28 124
e 28 125
e 28 129
e 28 136
e 28 138
e 28 142
e 28 143
e 29 30
e 29 33
e 29 40
e 29 81
e 29 82
e 29 83
e 29 91
e 29 101
e 29 113
e 29 139
e 29 143
e 29 150
e 30 50
e 30 52
e 30 66
e 30 70
e 30 78
e 30 80
e 30 94
e 30 102
e 30 117
e 30 121
e 30 125
e 30 131
e 30 141
e 30 142
e 30 146
e 31 50
e 31 54
e 31 63
e 31 74
e 31 88
e 31 93
e 31 102
e 31 124
e 31 126
e 31 133
e 31 144
e 32 33
e 32 38
e 32 56
e 32 57
e 32 63
e 32 64
e 32 77
e 32 78
e 32 93
e 32 116
e 32 124
e 32 140
e 33 56
e 33 57
e 33 60
e 33 67
e 33 71
e 33 88
e 33 97
e 33 112
e 33 113
e 33 121
e 33 146
e 34 36
e 34 42
e 34 51
e 34 52
e 34 53
e 34 66
e 34 75
e 34 77
e 34 79
e 34 103
e 34 107
e 34 121
e 34 123
e 34 144
e 34 150
e 35 51
e 35 52
e 35 64
e 35 69
e 35 79
e 35 86
e 35 90
e 35 96
e 35 99
e 35 121
e 35 123
e 35 124
e 35 138
e 35 147
e 36 50
e 36 63
e 36 81
e 36 88
e 36 100
e 36 107
e 36 120
e 36 125
e 36 129
e 36 131
e 36 134
e 36 141
e 36 146
e 37 49
e 37 51
e 37 52
e 37 58
e 37 69
e 37 78
e 37 82
e 37 89
e 37 90
e 37 100
e 37 106
e 37 113
e 37 129
e 37 132
e 37 140
e 37 142
e 38 45
e 38 57
e 38 58
e 38 61
e 38 69
e 38 70
e 38 71
e 38 89
e 38 112
e 38 114
e 38 118
e 38 123
e 38 149
e 38 150
e 39 41
e 39 42
e 39 49
e 39 50
e 39 55
e 39 56
e 39 63
e 39 71
e 39 73
e 39 86
e 39 94
e 39 104
e 39 118
e 39 146
e 40 44
e 40 66
e 40 69
e 40 89
e 40 125
e 40 126
e 40 137
e 41 42
e 41 47
e 41 65
e 41 70
e 41 74
e 41 79
e 41 80
e 41 84
e 41 99
e 41 105
e 41 111
e 41 114
e 41 120
e 41 122
e 42 43
e 42 54
e 42 59
e 42 60
e 42 115
e 42 129
e 42 131
e 42 134
e 42 136
e 42 139
e 42 149
e 43 46
e 43 58
e 43 67
e 43 69
e 43 86
e 43 89
e 43 102
e 43 103
e 43 107
e 43 134
e 43 137
e 43 148
e 44 58
e 44 65
e 44 66
e 44 71
e 44 72
e 44 80
e 44 90
e 44 92
e 44 93
e 44 95
e 44 96
e 44 122
e 44 136
e 44 147
e 45 73
e 45 79
e 45 81
e 45 98
e 45 104
e 45 105
e 45 114
e 45 116
e 46 57
e 46 59
e 46 66
e 46 75
e 46 87
e 46 89
e 46 99
e 46 105
e 46 107
e 46 120
e 46 121
e 46 129
e 46 133
e 46 137
e 46 148
e 47 50
e 47 59
e 47 60
e 47 70
e 47 75
e 47 95
e 47 117
e 47 131
e 48 54
e 48 68
e 48 79
e 48 88
e 48 115
e 48 122
e 49 52
e 49 57
e 49 64
e 49 67
e 49 87
e 49 93
e 49 97
e 49 109
e 49 133
e 49 134
e 49 142
e 49 146
e 50 65
e 50 88
e 50 91
e 50 92
e 50 93
e 50 94
e 50 102
e 50 113
e 50 114
e 50 128
e 50 143
e 50 148
e 51 70
e 51 81
e 51 82
e 51 97
e 51 107
e 51 109
e 51 111
e 51 113
e 51 133
e 51 150
e 52 62
e 52 80
e 52 92
e 52 101
e 52 105
e 52 112
e 52 126
e 52 131
e 52 137
e 52 143
e 53 59
e 53 79
e 53 101
e 53 114
e 53 132
e 53 140
e 53 144
e 53 147
e 54 57
e 54 59
e 54 65
e 54 66
e 54 79
e 54 85
e 54 102
e 54 103
e 54 113
e 54 123
e 54 133
e 55 58
e 55 63
e 55 78
e 55 91
e 55 113
e 55 139
e 55 144
e 55 148
e 56 57
e 56 95
e 56 106
e 56 109
e 56 119
e 56 122
e 56 123
e 56 127
e 56 133
e 56 139
e 57 58
e 57 61
e 57 63
e 57 64
e 57 74
e 57 110
e 57 116
e 57 126
e 57 136
e 57 137
e 58 78
e 58 94
e 58 109
e 58 117
e 58 118
e 58 125
e 58 131
e 58 135
e 58 145
e 58 149
e 59 66
e 59 69
e 59 76
e 59 84
e 59 111
e 59 114
e 59 117
e 59 123
e 59 132
e 59 137
e 60 66
e 60 74
e 60 79
e 60 120
e 60 149
e 61 67
e 61 81
e 61 92
e 61 100
e 61 114
e 61 115
e 61 127
e 62 84
e 62 128
e 62 129
e 62 147
e 62 148
e 62 150
e 63 68
e 63 69
e 63 76
e 63 95
e 63 99
e 63 127
e 63 135
e 64 70
e 64 97
e 64 103
e 64 132
e 64 135
e 65 71
e 65 84
e 65 103
e 65 117
e 65 129
e 65 149
e 66 68
e 66 77
e 66 78
e 66 80
e 66 115
e 66 116
e 66 122
e 66 126
e 66 139
e 66 142
e 66 150
e 67 83
e 67 84
e 67 105
e 68 76
e 68 91
e 68 103
e 68 137
e 69 76
e 69 81
e 69 88
e 69 89
e 69 90
e 69 109
e 69 113
e 69 121
e 69 123
e 69 129
e 69 135
e 70 71
e 70 84
e 70 100
e 70 107
e 70 114
e 70 118
e 70 147
e 71 74
e 71 75
e 71 84
e 71 97
e 71 104
e 71 106
e 71 109
e 71 117
e 71 126
e 71 142
e 71 143
e 71 147
e 72 78
e 72 95
e 72 97
e 72 103
e 72 108
e 72 118
e 72 136
e 73 77
e 73 81
e 73 90
e 73 94
e 73 96
e 73 99
e 73 101
e 73 104
e 73 108
e 73 112
e 73 114
e 73 118
e 73 121
e 73 123
e 73 134
e 73 135
e 73 137
e 73 145
e 74 107
e 74 108
e 74 125
e 74 130
e 74 145
e 75 76
e 75 82
e 75 113
e 75 121
e 75 128
e 75 137
e 76 80
e 76 86
e 76 92
e 76 98
e 76 100
e 76 107
e 76 129
e 76 138
e 76 144
e 77 80
e 77 85
e 77 92
e 77 95
e 77 96
e 77 99
e 77 104
e 77 109
e 77 112
e 77 114
e 77 118
e 77 123
e 77 148
e 77 150
e 78 79
e 78 81
e 78 82
e 78 100
e 78 107
e 78 108
e 78 109
e 78 113
e 78 120
e 78 139
e 79 89
e 79 96
e 79 104
e 79 122
e 79 133
e 79 134
e 79 143
e 80 91
e 80 92
e 80 93
e 80 117
e 80 123
e 80 126
e 80 132
e 80 136
e 80 138
e 80 139
e 80 141
e 81 87
e 81 95
e 81 100
e 81 104
e 81 105
e 81 110
e 81 115
e 81 118
e 81 120
e 81 124
e 81 133
e 81 134
e 81 141
e 81 143
e 81 144
e 82 87
e 82 88
e 82 93
e 82 106
e 82 109
e 82 131
e 82 136
e 82 142
e 82 148
e 82 150
e 83 90
e 83 111
e 83 120
e 83 122
e 83 126
e 83 136
e 83 138
e 83 146
e 83 149
e 84 86
e 84 94
e 84 97
e 84 120
e 84 122
e 84 128
e 84 150
e 85 100
e 85 126
e 85 133
e 85 140
e 85 150
e 86 87
e 86 103
e 86 142
e 86 146
e 87 88
e 87 91
e 87 108
e 87 109
e 87 120
e 87 130
e 87 137
e 87 143
e 88 89
e 88 91
e 88 98
e 89 93
e 89 96
e 89 101
e 89 114
e 89 116
e 89 131
e 89 144
e 90 103
e 90 108
e 90 112
e 90 130
e 90 144
e 91 97
e 91 125
e 91 132
e 92 111
e 92 119
e 92 126
e 92 129
e 92 135
e 93 104
e 93 111
e 93 120
e 93 138
e 93 143
e 93 144
e 94 101
e 94 110
e 94 127
e 94 135
e 94 136
e 95 102
e 95 115
e 95 118
e 95 120
e 95 124
e 95 131
e 95 141
e 96 100
e 96 119
e 96 124
e 96 131
e 96 140
e 96 148
e 96 149
e 97 107
e 97 114
e 97 115
e 97 118
e 97 123
e 97 136
e 97 141
e 97 142
e 97 144
e 97 150
e 98 105
e 98 107
e 98 109
e 98 120
e 99 112
e 99 124
e 99 141
e 100 107
e 100 124
e 100 128
e 100 135
e 100 146
e 100 149
e 101 103
e 101 109
e 101 132
e 101 133
e 101 138
e 101 139
e 101 149
e 102 142
e 102 143
e 102 144
e 103 105
e 103 114
e 103 129
e 103 132
e 103 138
e 104 111
e 104 126
e 104 128
e 105 106
e 105 108
e 105 113
e 105 119
e 105 121
e 105 135
e 105 137
e 105 141
e 106 107
e 106 129
e 106 135
e 107 108
e 107 117
e 107 124
e 107 139
e 108 114
e 108 120
e 108 127
e 108 129
e 108 132
e 108 138
e 108 143
e 108 150
e 109 131
e 109 135
e 109 137
e 110 124
e 110 134
e 110 136
e 110 145
e 111 120
e 111 130
e 111 132
e 111 136
e 111 138
e 111 150
e 112 121
e 112 123
e 112 141
e 112 145
e 112 148
e 113 122
e 113 127
e 113 130
e 113 143
e 114 118
e 114 119
e 114 140
e 114 143
e 114 147
e 115 122
e 115 123
e 115 130
e 115 143
e 115 146
e 116 135
e 116 142
e 116 149
e 117 118
e 117 129
e 117 131
e 118 131
e 118 150
e 119 123
e 119 134
e 119 145
e 119 148
e 120 121
e 120 125
e 120 141
e 121 123
e 121 126
e 121 148
e 121 150
e 122 133
e 123 127
e 123 148
e 124 140
e 125 148
e 126 133
e 126 137
e 126 146
e 126 148
e 126 150
e 128 141
e 128 147
e 129 130
e 129 146
e 129 149
e 130 142
e 131 137
e 131 144
e 132 133
e 132 140
e 132 144
e 132 145
e 133 134
e 133 138
e 136 142
e 136 143
e 138 141
e 138 143
e 138 146
e 140 146
e 141 150
